(declare-fun bvlambda_6_ ()Bool         )
(declare-fun bvlambda_7_ () (_ BitVec 2))
(declare-fun a25 () (Array (_ BitVec 1) (_ BitVec 13)))
(assert
(let (($e7 (_ bv0 8)))
(let (($e30 (select a25 true )))
(let (($e37 (concat        $e7 false       )))
(let (($e38 (concat $e37 false      )))
(let (($e39 (concat $e38 true       )))
(let (($e40 (concat $e39 bvlambda_7_)))
(let (($e42 (store a25 false $e40)))
(let (($e43 (store $e42 bvlambda_6_ $e30)))
(let (($e44 (select $e43 true       )))
                 (= $e44 $e40)
                                                                                                                                                                                                             ))) ))))      )              )      )
